CMD:
./solvers/bin/cadical --plain --no-reduce -t 1600 ./data/cnfs//shift_register_top_w64_d8_e0/shift_register_top_w64_d8_e0.69.cnf

c --- [ banner ] -------------------------------------------------------------
c 
c CaDiCaL SAT Solver
c Copyright (c) 2016-2024
c A. Biere, M. Fleury, N. Froleyks, K. Fazekas, F. Pollitt, T. Faller
c JKU Linz, University of Freiburg, TU Wien
c 
c Version 2.1.3 5296d3d2a9bf48c154ab2acb5e44625776d821bf
c g++ (Gentoo 12.3.1_p20230526 p2) 12.3.1 20230526 -Wall -Wextra -O3 -DNDEBUG
c Sat Aug 9 07:26:21 PDT 2025 Linux cedar2.int.cedar.computecanada.ca 5.14.0-362.24.2.el9_3.x86_64 x86_64
c 
c --- [ limit ] --------------------------------------------------------------
c 
c setting time limit to 1600 seconds real time (due to '-t 1600')
c 
c --- [ parsing input ] ------------------------------------------------------
c 
c reading DIMACS file from './data/cnfs//shift_register_top_w64_d8_e0/shift_register_top_w64_d8_e0.69.cnf'
c opening file to read './data/cnfs//shift_register_top_w64_d8_e0/shift_register_top_w64_d8_e0.69.cnf'
c found 'p cnf 327278 952281' header
c parsed 952281 clauses in 0.14 seconds process time
c 
c --- [ options ] ------------------------------------------------------------
c 
c   --compact=false                (different from default 'true')
c   --decompose=false              (different from default 'true')
c   --deduplicate=false            (different from default 'true')
c   --elim=false                   (different from default 'true')
c   --probe=false                  (different from default 'true')
c   --reduce=false                 (different from default 'true')
c   --subsume=false                (different from default 'true')
c   --ternary=false                (different from default 'true')
c   --transred=false               (different from default 'true')
c   --vivify=false                 (different from default 'true')
c 
c --- [ solving ] ------------------------------------------------------------
c 
c time measured in process time since initialization
c 
c  seconds   reductions  redundant  irredundant
c          MB    restarts       trail       variables
c           level   conflicts       glue          remaining
c 
c *  0.14 153  0 0   0    0    0  0% 0 942401 317448 97%
c {  0.21 159  0 0   0    0    0  0% 0 942401 317448 97%
c i  0.23 159 8981 0   0    9    8 97% 1 942401 316935 97%
c i  0.28 159 6267 0   9  136   72 82% 2 942401 316422 97%
c i  0.29 159 4401 0  12  169   99 68% 2 942401 316331 97%
c i  0.63 160 1656 0  59  541  450 46% 3 942401 316327 97%
c i  0.66 160 1427 0  76  620  525 42% 3 942401 316326 97%
c i  0.66 160 1417 0  77  624  528 42% 3 942401 316325 97%
c i  0.66 160 1412 0  78  626  529 42% 3 942401 315664 96%
c i  0.91 160 912 0 157  963  851 36% 5 942401 315657 96%
c i  0.91 160 911 0 158  964  851 36% 5 942401 315646 96%
c i  0.91 160 910 0 158  965  851 36% 5 942401 315641 96%
c i  0.91 160 905 0 159  971  855 36% 4 942401 315633 96%
c }  0.94 160 879 0 165 1000  882 35% 5 942401 315633 96%
c [  0.94 160  0 0 165 1000  882  0% 0 942401 315633 96%
c O  0.95 160 1333 0 165 1004  886 27% 3 942401 315633 96%
c i  2.13 161 1846 0 165 1807 1285 63% 46 942401 315632 96%
c i  2.18 161 1849 0 165 1948 1346 62% 46 942401 315631 96%
c i  2.21 161 1838 0 165 1979 1368 62% 45 942401 315630 96%
c i  2.22 161 1828 0 165 1995 1379 62% 45 942401 315629 96%
c 
c  seconds     reductions  redundant   irredundant
c          MB      restarts       trail        variables
c            level    conflicts       glue           remaining
c 
c i  2.37 161 1757 0 165 2095 1459 61% 43 942401 315628 96%
c i  2.98 161 1614 0 165 2464 1702 59% 40 942401 315627 96%
c i  3.25 161 1329 0 166 2701 1824 56% 42 942401 315626 96%
c i  3.27 161 1298 0 166 2733 1854 56% 41 942401 315617 96%
c ]  3.30 161 1089 0 166 3001 2064 52% 37 942401 315617 96%
c {  3.30 161 879 0 166 3001 2064 35% 5 942401 315617 96%
c F  3.30 161 874 0 167 3006 2069 35% 5 942401 315616 96%
c i  4.64 162 298 0 308 5918 4738 41% 18 942401 315615 96%
c #  4.65 162 293 0 308 6007 4822 41% 18 942401 315615 96%
c }  4.75 162 249 0 308 7001 5750 38% 16 942401 315615 96%
c [  4.75 162 1089 0 308 7001 5750 52% 37 942401 315615 96%
c i  4.77 163 1081 0 308 7040 5778 52% 36 942401 315614 96%
c i  5.39 163 652 0 309 9554 8045 51% 20 942401 315608 96%
c I  5.43 163 598 0 310 10008 8483 49% 20 942401 315608 96%
c i  5.44 163 587 0 310 10098 8559 48% 19 942401 315606 96%
c i  5.73 164 362 0 313 13767 11769 40% 15 942401 315604 96%
c ]  5.82 164 322 0 313 15001 12840 37% 14 942401 315604 96%
c {  5.82 164 249 0 313 15001 12840 38% 16 942401 315604 96%
c B  5.83 164 249 0 313 15011 12850 38% 16 942401 315604 96%
c i  5.95 165 498 0 313 16784 14377 37% 14 942401 315603 96%
c 
c  seconds    reductions    redundant   irredundant
c          MB     restarts         trail        variables
c            level    conflicts        glue           remaining
c 
c W  6.49 165 765 0 313 21012 17930 35% 11 874456 315603 96%
c i  6.79 165 764 0 349 21389 18276 35% 11 874456 315601 96%
c i  8.71 165 636 0 543 23872 20473 35% 13 874456 315600 96%
c F  8.99 165 492 0 543 28015 24246 32% 11 874456 315600 96%
... skipped 32421 lines ...
v -326796 -326797 326798 -326799 -326800 -326801 -326802 326803 -326804
v -326805 326806 -326807 -326808 -326809 -326810 326811 -326812 -326813 326814
v -326815 -326816 -326817 -326818 326819 -326820 -326821 326822 -326823
v -326824 -326825 -326826 326827 -326828 -326829 326830 -326831 -326832
v -326833 -326834 326835 -326836 -326837 326838 -326839 -326840 -326841
v -326842 326843 -326844 -326845 326846 -326847 -326848 -326849 -326850 326851
v -326852 -326853 326854 -326855 -326856 -326857 -326858 326859 -326860
v -326861 326862 -326863 -326864 -326865 -326866 326867 -326868 -326869 326870
v -326871 -326872 -326873 -326874 326875 -326876 -326877 326878 -326879
v -326880 -326881 -326882 326883 -326884 -326885 326886 -326887 -326888
v -326889 326890 -326891 326892 -326893 -326894 326895 -326896 326897 326898
v -326899 326900 -326901 -326902 326903 -326904 326905 326906 -326907 326908
v -326909 -326910 326911 -326912 326913 326914 -326915 326916 -326917 -326918
v 326919 -326920 326921 326922 -326923 326924 -326925 -326926 326927 -326928
v 326929 -326930 326931 -326932 -326933 326934 -326935 -326936 -326937 326938
v -326939 326940 -326941 -326942 326943 -326944 326945 326946 -326947 326948
v -326949 -326950 326951 -326952 326953 326954 -326955 326956 -326957 -326958
v 326959 -326960 326961 -326962 326963 -326964 -326965 326966 -326967 -326968
v -326969 326970 -326971 326972 -326973 -326974 326975 -326976 326977 326978
v -326979 326980 -326981 -326982 326983 -326984 326985 -326986 326987 -326988
v -326989 326990 -326991 -326992 -326993 -326994 326995 -326996 -326997 326998
v -326999 -327000 -327001 327002 -327003 327004 -327005 -327006 327007 -327008
v 327009 327010 -327011 327012 -327013 -327014 327015 -327016 327017 327018
v -327019 327020 -327021 327022 -327023 -327024 327025 -327026 327027 -327028
v 327029 -327030 327031 -327032 327033 -327034 327035 -327036 327037 -327038
v 327039 -327040 327041 -327042 327043 -327044 327045 -327046 327047 -327048
v 327049 -327050 327051 -327052 327053 -327054 327055 -327056 327057 -327058
v 327059 -327060 327061 -327062 327063 -327064 327065 -327066 327067 -327068
v 327069 -327070 327071 -327072 327073 -327074 327075 -327076 327077 -327078
v 327079 -327080 327081 -327082 327083 -327084 327085 -327086 327087 -327088
v 327089 -327090 327091 -327092 327093 -327094 327095 -327096 327097 -327098
v 327099 -327100 327101 -327102 327103 -327104 327105 -327106 327107 -327108
v 327109 -327110 327111 -327112 327113 -327114 327115 -327116 327117 -327118
v 327119 -327120 327121 -327122 327123 -327124 -327125 327126 -327127 -327128
v 327129 -327130 327131 -327132 327133 -327134 327135 -327136 327137 -327138
v 327139 -327140 327141 -327142 327143 -327144 327145 -327146 327147 -327148
v 327149 -327150 327151 -327152 327153 -327154 327155 -327156 327157 -327158
v 327159 -327160 327161 -327162 327163 -327164 327165 -327166 327167 -327168
v 327169 -327170 327171 -327172 327173 -327174 327175 -327176 327177 -327178
v 327179 -327180 327181 -327182 327183 -327184 327185 -327186 327187 -327188
v 327189 -327190 327191 -327192 327193 -327194 327195 -327196 327197 -327198
v 327199 -327200 327201 -327202 327203 -327204 327205 -327206 327207 -327208
v 327209 -327210 327211 -327212 327213 -327214 327215 -327216 -327217 327218
v -327219 -327220 -327221 327222 -327223 -327224 -327225 327226 -327227
v -327228 -327229 327230 -327231 -327232 327233 -327234 327235 -327236 -327237
v 327238 -327239 -327240 -327241 327242 -327243 -327244 -327245 327246 -327247
v -327248 -327249 327250 -327251 -327252 -327253 327254 -327255 -327256
v -327257 327258 -327259 -327260 -327261 327262 -327263 -327264 -327265 327266
v -327267 -327268 -327269 327270 -327271 -327272 -327273 327274 -327275
v -327276 327277 -327278 0
c 
c --- [ run-time profiling ] -------------------------------------------------
c 
c process time taken by individual solving procedures
c (percentage relative to process time for solving)
c 
c        95.55  100.00% search
c        84.12   88.04% stable
c        10.79   11.29% unstable
c         0.57    0.60% walk
c         0.14    0.14% parse
c         0.07    0.08% lucky
c         0.00    0.00% simplify
c   =================================
c        95.55   99.84% solve
c 
c last line shows process time for solving
c (percentage relative to total process time)
c 
c --- [ statistics ] ---------------------------------------------------------
c 
c chronological:             30451        41.60 %  of conflicts
c conflicts:                 73203       766.15    per second
c decisions:               1406432     14719.89    per second
c fixed:                     11853         3.62 %  of all variables
c learned:                   71665        97.90 %  per conflict
c learned_lits:            5757446       100.00 %  learned literals
c minimized:                     0         0.00 %  learned literals
c shrunken:                2336377        40.58 %  learned literals
c minishrunken:             729511        12.67 %  learned literals
c otfs:                        302         0.41 %  of conflict
c propagations:          784690139         8.21 M  per second
c rephased:                     11      6654.82    interval
c restarts:                   1221        59.95    interval
c stabilizing:                   3        57.35 %  of conflicts
c subsumed:                   5543         0.55 %  of all clauses
c strengthened:                268         0.03 %  of all clauses
c walked:                        2     36601.50    interval
c 
c seconds are measured in process time for solving
c 
c --- [ resources ] ----------------------------------------------------------
c 
c total process time since initialization:        95.70    seconds
c total real time since initialization:           96.28    seconds
c maximum resident set size of process:          197.43    MB
c 
c --- [ shutting down ] ------------------------------------------------------
c 
c exit 10
